1354
47 99 49 72 46 1 24 44 64 58 56 13 4 92 28 67 84 65 86 73 53 83 61 6 87 45 51 26 38 75 30 85 89 59 5 96 98 37 52 97 3 70 10 43 60 79 91 41 63 95 55 80 35 62 94 34 40 78 27 25 32 7 93 69 12 11 18 9 19 71 33 76 81 22 8 88 42 74 82 57 17 23 15 48 16 39 21 2 54 36 66 29 90 20 68 50 31 77 14 
